p cnf 149 330
111 112 113 114 115 116 117 0
-111 -112 0
-111 -113 0
-111 -114 0
-111 -115 0
-111 -116 0
-111 -117 0
-112 -113 0
-112 -114 0
-112 -115 0
-112 -116 0
-112 -117 0
-113 -114 0
-113 -115 0
-113 -116 0
-113 -117 0
-114 -115 0
-114 -116 0
-114 -117 0
-115 -116 0
-115 -117 0
-116 -117 0
-118 0
-119 0
121 122 123 124 125 126 127 0
-121 -122 0
-121 -123 0
-121 -124 0
-121 -125 0
-121 -126 0
-121 -127 0
-122 -123 0
-122 -124 0
-122 -125 0
-122 -126 0
-122 -127 0
-123 -124 0
-123 -125 0
-123 -126 0
-123 -127 0
-124 -125 0
-124 -126 0
-124 -127 0
-125 -126 0
-125 -127 0
-126 -127 0
-128 0
-129 0
131 132 133 134 135 136 137 0
-131 -132 0
-131 -133 0
-131 -134 0
-131 -135 0
-131 -136 0
-131 -137 0
-132 -133 0
-132 -134 0
-132 -135 0
-132 -136 0
-132 -137 0
-133 -134 0
-133 -135 0
-133 -136 0
-133 -137 0
-134 -135 0
-134 -136 0
-134 -137 0
-135 -136 0
-135 -137 0
-136 -137 0
-138 0
-139 0
141 142 143 144 145 146 147 0
-141 -142 0
-141 -143 0
-141 -144 0
-141 -145 0
-141 -146 0
-141 -147 0
-142 -143 0
-142 -144 0
-142 -145 0
-142 -146 0
-142 -147 0
-143 -144 0
-143 -145 0
-143 -146 0
-143 -147 0
-144 -145 0
-144 -146 0
-144 -147 0
-145 -146 0
-145 -147 0
-146 -147 0
-148 0
-149 0
11 12 13 14 15 16 17 0
-11 -12 0
-11 -13 0
-11 -14 0
-11 -15 0
-11 -16 0
-11 -17 0
-12 -13 0
-12 -14 0
-12 -15 0
-12 -16 0
-12 -17 0
-13 -14 0
-13 -15 0
-13 -16 0
-13 -17 0
-14 -15 0
-14 -16 0
-14 -17 0
-15 -16 0
-15 -17 0
-16 -17 0
-18 0
-19 0
51 52 53 54 55 56 57 0
-51 -52 0
-51 -53 0
-51 -54 0
-51 -55 0
-51 -56 0
-51 -57 0
-52 -53 0
-52 -54 0
-52 -55 0
-52 -56 0
-52 -57 0
-53 -54 0
-53 -55 0
-53 -56 0
-53 -57 0
-54 -55 0
-54 -56 0
-54 -57 0
-55 -56 0
-55 -57 0
-56 -57 0
-58 0
-59 0
81 82 83 84 85 86 87 0
-81 -82 0
-81 -83 0
-81 -84 0
-81 -85 0
-81 -86 0
-81 -87 0
-82 -83 0
-82 -84 0
-82 -85 0
-82 -86 0
-82 -87 0
-83 -84 0
-83 -85 0
-83 -86 0
-83 -87 0
-84 -85 0
-84 -86 0
-84 -87 0
-85 -86 0
-85 -87 0
-86 -87 0
-88 0
-89 0
121 122 123 124 125 126 127 0
-121 -122 0
-121 -123 0
-121 -124 0
-121 -125 0
-121 -126 0
-121 -127 0
-122 -123 0
-122 -124 0
-122 -125 0
-122 -126 0
-122 -127 0
-123 -124 0
-123 -125 0
-123 -126 0
-123 -127 0
-124 -125 0
-124 -126 0
-124 -127 0
-125 -126 0
-125 -127 0
-126 -127 0
-128 0
-129 0
-111 122 0
-116 127 0
-114 123 0
-115 127 0
111 116 114 115 0
122 127 123 127 0
-131 142 0
-136 147 0
-134 143 0
-135 147 0
131 136 134 135 0
142 147 143 147 0
-11 52 0
-16 57 0
-14 53 0
-15 57 0
11 16 14 15 0
52 57 53 57 0
-81 122 0
-86 127 0
-84 123 0
-85 127 0
81 86 84 85 0
122 127 123 127 0
-111 -122 -131 -142 0
-111 -122 -11 -52 0
-111 -122 -81 -122 0
-131 -142 -11 -52 0
-131 -142 -81 -122 0
-11 -52 -81 -122 0
-116 -127 -136 -147 0
-116 -127 -16 -57 0
-116 -127 -86 -127 0
-136 -147 -16 -57 0
-136 -147 -86 -127 0
-16 -57 -86 -127 0
-114 -123 -134 -143 0
-114 -123 -14 -53 0
-114 -123 -84 -123 0
-134 -143 -14 -53 0
-134 -143 -84 -123 0
-14 -53 -84 -123 0
-115 -127 -135 -147 0
-115 -127 -15 -57 0
-115 -127 -85 -127 0
-135 -147 -15 -57 0
-135 -147 -85 -127 0
-15 -57 -85 -127 0
31 34 36 0
-31 -34 0
-31 -36 0
-34 -36 0
-32 0
-33 0
-35 0
-37 0
-38 0
-39 0
71 74 76 0
-71 -74 0
-71 -76 0
-74 -76 0
-72 0
-73 0
-75 0
-77 0
-78 0
-79 0
111 114 116 0
-111 -114 0
-111 -116 0
-114 -116 0
-112 0
-113 0
-115 0
-117 0
-118 0
-119 0
-31 74 0
-31 116 0
31 0
74 0
116 0
52 53 54 55 0
-52 -53 0
-52 -54 0
-52 -55 0
-53 -54 0
-53 -55 0
-54 -55 0
-51 0
-56 0
-57 0
-58 0
-59 0
62 63 64 65 0
-62 -63 0
-62 -64 0
-62 -65 0
-63 -64 0
-63 -65 0
-64 -65 0
-61 0
-66 0
-67 0
-68 0
-69 0
72 73 74 75 0
-72 -73 0
-72 -74 0
-72 -75 0
-73 -74 0
-73 -75 0
-74 -75 0
-71 0
-76 0
-77 0
-78 0
-79 0
82 83 84 85 0
-82 -83 0
-82 -84 0
-82 -85 0
-83 -84 0
-83 -85 0
-84 -85 0
-81 0
-86 0
-87 0
-88 0
-89 0
-52 63 0
-52 74 0
-52 85 0
52 0
63 0
74 0
85 0
